letting n =  10
letting blocks =  [[1, 1], [1, 5], [1, 10], [2, 1], [2, 9], [3, 2], [3, 4], [3, 6], [4, 1], [4, 2], [4, 3], [4, 4], [4, 5], [5, 5], [5, 8], [5, 9], [6, 4], [6, 6], [6, 7], [6, 8], [7, 3], [7, 5], [7, 6], [7, 8], [8, 1], [8, 5], [9, 5], [9, 6], [9, 9], [9, 10], [10, 3], [10, 8]]
